1 100 790 135
0 35.0 35.0 0.0 0.0 0 230
2 41.0 49.0 10.0 10.0 130 201 1 5
3 35.0 17.0 10.0 7.0 20 89 2 5
4 55.0 45.0 10.0 13.0 106 135 3 5
5 55.0 20.0 10.0 19.0 71 195 4 5
6 15.0 30.0 10.0 26.0 20 107 5 5
7 25.0 30.0 10.0 3.0 54 153 6 10
8 20.0 50.0 10.0 5.0 66 105 7 10
9 10.0 43.0 10.0 9.0 61 138 8 10
10 55.0 60.0 10.0 16.0 53 150 9 10
11 30.0 60.0 10.0 16.0 101 156 10 10
12 20.0 65.0 10.0 12.0 33 152 11 15
13 50.0 35.0 10.0 19.0 38 97 12 15
14 30.0 25.0 10.0 23.0 70 208 13 15
15 15.0 10.0 10.0 20.0 32 137 14 15
16 30.0 5.0 10.0 8.0 30 154 15 15
17 10.0 20.0 10.0 19.0 54 105 16 5
18 5.0 30.0 10.0 2.0 51 189 17 5
19 20.0 40.0 10.0 12.0 77 106 18 5
20 15.0 60.0 10.0 17.0 53 108 19 5
21 45.0 65.0 10.0 9.0 109 152 20 5
22 45.0 20.0 10.0 11.0 37 96 21 10
23 45.0 10.0 10.0 18.0 59 144 22 10
24 55.0 5.0 10.0 29.0 36 155 23 10
25 65.0 35.0 10.0 3.0 118 190 24 10
26 65.0 20.0 10.0 6.0 47 186 25 10
27 45.0 30.0 10.0 17.0 117 156 26 15
28 35.0 40.0 10.0 16.0 5 156 27 15
29 41.0 37.0 10.0 16.0 8 79 28 15
30 64.0 42.0 10.0 9.0 37 98 29 15
31 40.0 60.0 10.0 21.0 28 123 30 15
32 31.0 52.0 10.0 27.0 24 85 31 5
33 35.0 69.0 10.0 23.0 116 175 32 5
34 53.0 52.0 10.0 11.0 24 179 33 5
35 65.0 55.0 10.0 14.0 100 143 34 5
36 63.0 65.0 10.0 8.0 50 178 35 5
37 2.0 60.0 10.0 5.0 41 178 36 10
38 20.0 20.0 10.0 8.0 117 160 37 10
39 5.0 5.0 10.0 16.0 42 145 38 10
40 60.0 12.0 10.0 31.0 33 186 39 10
41 40.0 25.0 10.0 9.0 51 128 40 10
42 42.0 7.0 10.0 5.0 44 159 41 15
43 24.0 12.0 10.0 5.0 25 172 42 15
44 23.0 3.0 10.0 7.0 115 158 43 15
45 11.0 14.0 10.0 18.0 31 138 44 15
46 6.0 38.0 10.0 16.0 29 189 45 15
47 2.0 48.0 10.0 1.0 93 150 46 5
48 8.0 56.0 10.0 27.0 34 116 47 5
49 13.0 52.0 10.0 36.0 125 192 48 5
50 6.0 68.0 10.0 30.0 93 132 49 5
51 47.0 47.0 10.0 13.0 105 152 50 5
52 49.0 58.0 10.0 10.0 66 119 51 10
53 27.0 43.0 10.0 9.0 25 88 52 10
54 37.0 31.0 10.0 14.0 62 137 53 10
55 57.0 29.0 10.0 18.0 121 168 54 10
56 63.0 23.0 10.0 2.0 70 189 55 10
57 53.0 12.0 10.0 6.0 81 188 56 15
58 32.0 12.0 10.0 7.0 78 133 57 15
59 36.0 26.0 10.0 18.0 79 210 58 15
60 21.0 24.0 10.0 28.0 17 123 59 15
61 17.0 34.0 10.0 3.0 130 201 60 15
62 12.0 24.0 10.0 13.0 59 102 61 5
63 24.0 58.0 10.0 19.0 25 164 62 5
64 27.0 69.0 10.0 10.0 34 112 63 5
65 15.0 77.0 10.0 9.0 46 165 64 5
66 62.0 77.0 10.0 20.0 49 170 65 5
67 49.0 73.0 10.0 25.0 77 179 66 10
68 67.0 5.0 10.0 25.0 43 150 67 10
69 56.0 39.0 10.0 36.0 82 198 68 10
70 37.0 47.0 10.0 6.0 12 142 69 10
71 37.0 56.0 10.0 5.0 21 198 70 10
72 57.0 68.0 10.0 15.0 57 106 71 15
73 47.0 16.0 10.0 25.0 22 110 72 15
74 44.0 17.0 10.0 9.0 60 105 73 15
75 46.0 13.0 10.0 8.0 73 195 74 15
76 49.0 11.0 10.0 18.0 46 101 75 15
77 49.0 42.0 10.0 13.0 36 119 76 5
78 53.0 43.0 10.0 14.0 65 200 77 5
79 61.0 52.0 10.0 3.0 43 158 78 5
80 57.0 48.0 10.0 23.0 58 135 79 5
81 56.0 37.0 10.0 6.0 69 198 80 5
82 55.0 54.0 10.0 26.0 87 110 81 10
83 15.0 47.0 10.0 16.0 28 91 82 10
84 14.0 37.0 10.0 11.0 21 97 83 10
85 11.0 31.0 10.0 7.0 68 143 84 10
86 16.0 22.0 10.0 41.0 74 117 85 10
87 4.0 18.0 10.0 35.0 79 118 86 15
88 28.0 18.0 10.0 26.0 84 111 87 15
89 26.0 52.0 10.0 9.0 24 133 88 15
90 26.0 35.0 10.0 15.0 128 211 89 15
91 31.0 67.0 10.0 3.0 76 123 90 15
92 15.0 19.0 10.0 1.0 130 194 91 5
93 22.0 22.0 10.0 2.0 18 181 92 5
94 18.0 24.0 10.0 22.0 41 199 93 5
95 26.0 27.0 10.0 27.0 88 121 94 5
96 25.0 24.0 10.0 20.0 14 83 95 5
97 22.0 27.0 10.0 11.0 119 160 96 10
98 25.0 21.0 10.0 12.0 122 153 97 10
99 19.0 21.0 10.0 10.0 32 93 98 10
100 20.0 26.0 10.0 9.0 38 137 99 10
101 18.0 18.0 10.0 17.0 28 195 100 10